
Gurobi 8.1.1 (linux64, Python) logging started Mon Apr 13 10:44:26 2020

Academic license - for non-commercial use only

Gurobi 8.1.1 (linux64, Python) logging started Mon Apr 13 10:48:10 2020

Academic license - for non-commercial use only

Gurobi 8.1.1 (linux64, Python) logging started Mon Apr 13 10:50:26 2020

Academic license - for non-commercial use only

Gurobi 8.1.1 (linux64, Python) logging started Mon Apr 13 10:52:02 2020

Academic license - for non-commercial use only
